1000
120 120
1 96 690
2 96 607
3 96 621
4 96 186
5 96 343
6 96 832
7 96 282
8 96 577
9 96 578
10 96 77
11 95 504
12 95 206
13 95 847
14 95 323
15 95 605
16 95 606
17 95 630
18 95 795
19 95 228
20 95 891
21 94 555
22 94 466
23 94 868
24 94 307
25 94 254
26 94 92
27 94 475
28 94 184
29 94 178
30 94 781
31 94 161
32 94 442
33 94 833
34 94 376
35 93 358
36 93 498
37 93 59
38 93 518
39 93 815
40 93 569
41 93 77
42 93 18
43 93 259
44 92 520
45 92 847
46 92 871
47 92 494
48 92 531
49 92 940
50 92 148
51 92 160
52 92 614
53 92 158
54 92 17
55 92 6
56 91 192
57 91 79
58 91 695
59 91 360
60 91 455
61 91 592
62 91 213
63 91 99
64 91 176
65 91 128
66 91 210
67 90 832
68 90 431
69 90 584
70 90 956
71 90 614
72 90 783
73 90 207
74 90 754
75 90 873
76 90 205
77 90 102
78 90 646
79 90 479
80 90 756
81 90 59
82 90 625
83 90 476
84 90 496
85 89 1000
86 89 641
87 89 906
88 89 237
89 89 658
90 89 325
91 89 974
92 89 597
93 89 313
94 89 827
95 89 388
96 89 166
97 89 768
98 88 506
99 88 225
100 88 788
101 88 249
102 88 732
103 88 208
104 88 130
105 88 355
106 88 194
107 88 292
108 88 830
109 88 540
110 88 376
111 88 754
112 88 703
113 88 410
114 87 862
115 87 808
116 87 926
117 87 424
118 87 895
119 87 494
120 87 899
121 87 720
122 86 208
123 86 357
124 86 461
125 86 118
126 86 537
127 86 458
128 86 188
129 86 897
130 86 235
131 86 473
132 86 960
133 86 248
134 86 485
135 86 228
136 86 735
137 86 838
138 86 409
139 85 175
140 85 151
141 85 231
142 85 392
143 85 866
144 85 358
145 85 792
146 85 602
147 84 480
148 84 470
149 84 426
150 84 555
151 84 146
152 84 229
153 84 324
154 84 692
155 84 230
156 84 334
157 84 345
158 84 139
159 84 192
160 84 241
161 83 723
162 83 311
163 83 413
164 83 47
165 83 519
166 83 716
167 83 974
168 83 387
169 83 818
170 83 833
171 83 45
172 83 338
173 83 263
174 83 345
175 82 482
176 82 801
177 82 948
178 82 430
179 82 671
180 82 863
181 82 524
182 82 897
183 81 353
184 81 994
185 81 642
186 81 825
187 81 618
188 81 25
189 81 370
190 81 904
191 81 916
192 81 990
193 81 872
194 81 994
195 81 548
196 81 26
197 80 465
198 80 896
199 80 75
200 80 138
201 80 208
202 80 923
203 80 60
204 79 334
205 79 92
206 79 917
207 79 219
208 79 188
209 79 985
210 79 990
211 79 767
212 79 433
213 79 959
214 79 551
215 79 205
216 79 936
217 79 214
218 79 949
219 78 480
220 78 721
221 78 780
222 78 300
223 78 928
224 78 536
225 78 438
226 78 901
227 78 410
228 78 123
229 78 808
230 78 114
231 78 285
232 78 167
233 78 153
234 78 214
235 78 480
236 77 146
237 77 733
238 77 659
239 77 469
240 77 306
241 77 148
242 77 268
243 77 633
244 77 37
245 76 845
246 76 432
247 76 744
248 76 919
249 76 901
250 76 390
251 76 291
252 76 783
253 76 515
254 76 439
255 76 128
256 75 235
257 75 538
258 75 987
259 75 527
260 75 130
261 75 337
262 75 819
263 75 172
264 75 394
265 75 992
266 75 522
267 74 641
268 74 144
269 74 703
270 74 266
271 74 578
272 74 549
273 74 789
274 74 140
275 74 479
276 74 429
277 73 578
278 73 745
279 73 41
280 73 159
281 73 304
282 73 665
283 73 858
284 73 21
285 72 653
286 72 6
287 72 762
288 72 960
289 72 146
290 72 870
291 72 50
292 72 153
293 72 273
294 72 22
295 71 133
296 71 45
297 71 761
298 71 285
299 71 482
300 71 704
301 71 212
302 71 224
303 71 362
304 71 789
305 71 572
306 71 472
307 71 233
308 70 0
309 70 918
310 70 852
311 70 934
312 70 895
313 70 490
314 70 361
315 70 616
316 70 901
317 70 208
318 70 982
319 69 829
320 69 757
321 69 421
322 69 427
323 69 690
324 69 284
325 69 410
326 68 542
327 68 231
328 68 88
329 68 86
330 68 425
331 68 836
332 68 513
333 68 163
334 67 56
335 67 891
336 67 197
337 67 460
338 67 842
339 67 416
340 67 31
341 67 660
342 67 769
343 66 842
344 66 439
345 66 997
346 66 766
347 66 74
348 66 235
349 66 163
350 66 599
351 66 324
352 66 144
353 66 652
354 66 814
355 66 544
356 66 700
357 66 522
358 65 122
359 65 577
360 65 281
361 65 207
362 65 573
363 65 272
364 65 215
365 65 924
366 65 474
367 65 577
368 65 348
369 65 993
370 65 241
371 65 557
372 65 92
373 65 314
374 65 163
375 64 289
376 64 577
377 64 536
378 64 974
379 64 237
380 64 742
381 64 540
382 64 432
383 64 635
384 64 609
385 63 653
386 63 922
387 63 946
388 63 949
389 63 333
390 63 754
391 63 868
392 63 638
393 63 380
394 63 534
395 63 629
396 63 132
397 62 973
398 62 482
399 62 125
400 62 788
401 62 448
402 62 202
403 62 854
404 62 506
405 62 671
406 62 716
407 61 527
408 61 138
409 61 361
410 61 616
411 61 47
412 61 184
413 61 514
414 61 853
415 61 745
416 61 402
417 61 781
418 61 63
419 61 499
420 61 461
421 61 112
422 61 136
423 61 895
424 61 943
425 60 451
426 60 701
427 60 768
428 60 872
429 60 187
430 60 619
431 60 272
432 60 616
433 60 776
434 60 761
435 59 470
436 59 210
437 59 346
438 59 862
439 59 204
440 59 405
441 59 525
442 59 541
443 59 602
444 59 163
445 59 393
446 59 885
447 59 828
448 59 200
449 58 703
450 58 803
451 58 506
452 58 286
453 58 63
454 58 817
455 57 376
456 57 635
457 57 148
458 57 152
459 57 214
460 57 146
461 57 317
462 57 887
463 57 489
464 57 892
465 57 165
466 57 318
467 57 328
468 57 735
469 57 1
470 56 629
471 56 702
472 56 968
473 56 335
474 56 595
475 56 252
476 56 112
477 56 505
478 56 374
479 56 826
480 56 814
481 55 100
482 55 284
483 55 957
484 55 298
485 55 34
486 55 826
487 55 194
488 55 945
489 55 398
490 55 347
491 55 515
492 55 139
493 55 492
494 55 408
495 55 943
496 55 5
497 54 892
498 54 174
499 54 42
500 54 402
501 54 662
502 54 478
503 54 419
504 54 210
505 54 357
506 54 326
507 54 235
508 54 592
509 54 333
510 54 177
511 53 796
512 53 927
513 53 698
514 53 584
515 53 707
516 53 572
517 53 236
518 53 761
519 53 454
520 53 759
521 52 53
522 52 453
523 52 761
524 52 375
525 52 15
526 52 130
527 52 103
528 52 540
529 52 237
530 52 258
531 51 131
532 51 191
533 51 514
534 51 744
535 51 521
536 51 412
537 51 623
538 51 624
539 51 181
540 50 10
541 50 469
542 50 759
543 50 330
544 50 983
545 50 565
546 50 383
547 50 423
548 50 985
549 50 608
550 50 762
551 50 714
552 50 341
553 50 648
554 49 19
555 49 530
556 49 173
557 49 281
558 49 691
559 49 516
560 49 945
561 49 18
562 49 117
563 48 238
564 48 645
565 48 487
566 48 726
567 48 122
568 48 693
569 48 930
570 48 323
571 48 899
572 48 391
573 48 715
574 47 995
575 47 181
576 47 812
577 47 443
578 47 537
579 47 247
580 47 877
581 47 106
582 47 798
583 47 834
584 47 659
585 47 322
586 47 841
587 47 150
588 47 497
589 47 597
590 46 558
591 46 694
592 46 928
593 46 589
594 46 570
595 46 346
596 46 178
597 46 112
598 46 438
599 46 304
600 46 862
601 46 53
602 46 671
603 45 187
604 45 289
605 45 161
606 45 117
607 45 560
608 45 757
609 45 737
610 45 897
611 45 497
612 44 112
613 44 909
614 44 257
615 44 688
616 44 468
617 44 995
618 44 277
619 44 398
620 44 339
621 43 981
622 43 741
623 43 758
624 43 857
625 43 308
626 43 589
627 43 244
628 43 643
629 43 76
630 43 175
631 43 854
632 43 759
633 42 516
634 42 210
635 42 757
636 42 554
637 42 207
638 42 246
639 42 768
640 42 635
641 42 492
642 42 818
643 41 70
644 41 507
645 41 872
646 41 412
647 41 136
648 41 32
649 41 908
650 41 781
651 41 228
652 40 753
653 40 739
654 40 963
655 40 520
656 40 71
657 40 366
658 40 876
659 40 904
660 40 745
661 40 494
662 40 378
663 40 224
664 39 445
665 39 617
666 39 44
667 39 589
668 39 506
669 39 296
670 39 533
671 39 295
672 39 739
673 39 758
674 39 461
675 39 146
676 39 691
677 39 997
678 38 874
679 38 330
680 38 738
681 38 646
682 38 751
683 38 571
684 38 51
685 38 635
686 38 883
687 38 44
688 38 1000
689 38 68
690 37 680
691 37 921
692 37 814
693 37 478
694 37 115
695 37 197
696 37 17
697 37 547
698 36 812
699 36 734
700 36 401
701 36 51
702 36 121
703 36 392
704 36 916
705 36 843
706 36 59
707 36 328
708 36 703
709 35 236
710 35 173
711 35 282
712 35 276
713 35 315
714 35 875
715 35 418
716 35 45
717 35 994
718 34 874
719 34 621
720 34 520
721 34 617
722 34 903
723 34 567
724 34 196
725 34 720
726 34 519
727 34 356
728 34 528
729 34 747
730 34 543
731 34 251
732 33 613
733 33 32
734 33 45
735 33 888
736 33 611
737 33 828
738 33 484
739 33 204
740 33 903
741 33 981
742 33 571
743 33 89
744 32 185
745 32 641
746 32 390
747 32 425
748 32 763
749 32 624
750 32 976
751 32 428
752 32 514
753 32 211
754 32 557
755 32 470
756 32 833
757 32 887
758 32 875
759 32 331
760 32 935
761 32 700
762 31 739
763 31 470
764 31 202
765 31 816
766 31 970
767 31 399
768 31 607
769 31 578
770 31 685
771 31 217
772 31 395
773 30 23
774 30 485
775 30 940
776 30 868
777 30 456
778 30 800
779 30 66
780 30 733
781 30 866
782 30 627
783 30 608
784 30 853
785 29 471
786 29 587
787 29 674
788 29 198
789 29 150
790 29 994
791 29 699
792 29 811
793 29 155
794 28 974
795 28 406
796 28 253
797 28 180
798 28 916
799 28 754
800 28 785
801 28 793
802 28 791
803 28 289
804 28 971
805 28 821
806 28 680
807 28 211
808 28 927
809 28 285
810 28 980
811 28 478
812 28 141
813 27 273
814 27 173
815 27 282
816 27 503
817 27 242
818 27 540
819 27 344
820 27 510
821 27 194
822 27 95
823 27 80
824 27 423
825 27 932
826 26 377
827 26 450
828 26 658
829 26 279
830 26 654
831 26 861
832 26 782
833 26 91
834 26 435
835 26 463
836 26 584
837 26 849
838 26 727
839 26 689
840 25 308
841 25 327
842 25 917
843 25 561
844 25 729
845 25 799
846 25 430
847 25 391
848 25 712
849 24 966
850 24 192
851 24 327
852 24 828
853 24 858
854 24 413
855 24 718
856 24 831
857 24 270
858 24 860
859 23 830
860 23 621
861 23 618
862 23 541
863 23 932
864 23 522
865 23 800
866 23 209
867 23 816
868 23 14
869 23 584
870 23 988
871 23 521
872 23 611
873 22 202
874 22 760
875 22 652
876 22 782
877 22 913
878 22 541
879 22 973
880 22 972
881 22 987
882 22 289
883 22 868
884 21 301
885 21 673
886 21 910
887 21 31
888 21 97
889 21 957
890 21 395
891 21 924
892 20 467
893 20 438
894 20 8
895 20 665
896 20 30
897 20 162
898 20 381
899 20 2
900 20 569
901 20 897
902 19 639
903 19 122
904 19 672
905 19 456
906 19 299
907 19 290
908 19 45
909 19 656
910 19 173
911 18 190
912 18 327
913 18 43
914 18 26
915 18 988
916 18 640
917 18 133
918 18 943
919 18 289
920 18 68
921 18 374
922 18 274
923 18 208
924 17 180
925 17 904
926 17 40
927 17 439
928 17 694
929 17 392
930 17 834
931 17 485
932 17 837
933 17 750
934 17 25
935 17 79
936 16 516
937 16 856
938 16 388
939 16 427
940 16 458
941 16 52
942 16 606
943 16 360
944 16 602
945 16 921
946 16 481
947 16 162
948 16 618
949 16 255
950 16 790
951 16 931
952 16 959
953 16 523
954 16 250
955 15 727
956 15 818
957 15 230
958 15 257
959 15 369
960 15 639
961 15 509
962 15 839
963 15 627
964 14 427
965 14 978
966 14 289
967 14 406
968 14 546
969 14 29
970 14 805
971 14 784
972 14 435
973 14 852
974 14 252
975 14 789
976 14 827
977 14 360
978 14 270
979 13 752
980 13 997
981 13 271
982 13 981
983 13 986
984 13 539
985 13 677
986 13 924
987 13 599
988 13 550
989 13 585
990 13 421
991 13 835
992 12 840
993 12 107
994 12 120
995 12 746
996 12 767
997 12 533
998 12 440
999 12 482
1000 12 1
